
;this file is automatically generated: Tue Mar 02 15:25:50 CST 2021

;declarations generated

(declare-fun type_11ce97c2_fc03_4bd2_aad1_cb297e481509_Class42 ( Int) Bool)
(declare-fun type_11ce97c2_fc03_4bd2_aad1_cb297e481509_Class41 ( Int) Bool)
(declare-fun type_11ce97c2_fc03_4bd2_aad1_cb297e481509_Class40 ( Int) Bool)
(declare-fun type_11ce97c2_fc03_4bd2_aad1_cb297e481509_Class35 ( Int) Bool)
(declare-fun type_11ce97c2_fc03_4bd2_aad1_cb297e481509_Class34 ( Int) Bool)
(declare-fun type_11ce97c2_fc03_4bd2_aad1_cb297e481509_Class33 ( Int) Bool)
(declare-fun type_11ce97c2_fc03_4bd2_aad1_cb297e481509_Class32 ( Int) Bool)
(declare-fun type_11ce97c2_fc03_4bd2_aad1_cb297e481509_Class39 ( Int) Bool)
(declare-fun type_11ce97c2_fc03_4bd2_aad1_cb297e481509_Class38 ( Int) Bool)
(declare-fun type_11ce97c2_fc03_4bd2_aad1_cb297e481509_Class37 ( Int) Bool)
(declare-fun type_11ce97c2_fc03_4bd2_aad1_cb297e481509_Class36 ( Int) Bool)
(declare-fun type_11ce97c2_fc03_4bd2_aad1_cb297e481509_Class53 ( Int) Bool)
(declare-fun type_11ce97c2_fc03_4bd2_aad1_cb297e481509_Class52 ( Int) Bool)
(declare-fun type_11ce97c2_fc03_4bd2_aad1_cb297e481509_Class51 ( Int) Bool)
(declare-fun type_11ce97c2_fc03_4bd2_aad1_cb297e481509_Class50 ( Int) Bool)
(declare-fun type_11ce97c2_fc03_4bd2_aad1_cb297e481509_Class46 ( Int) Bool)
(declare-fun type_11ce97c2_fc03_4bd2_aad1_cb297e481509_Class45 ( Int) Bool)
(declare-fun type_11ce97c2_fc03_4bd2_aad1_cb297e481509_Class44 ( Int) Bool)
(declare-fun type_11ce97c2_fc03_4bd2_aad1_cb297e481509_Class43 ( Int) Bool)
(declare-fun oclExcludes ( Int Int) Bool)
(declare-fun type_11ce97c2_fc03_4bd2_aad1_cb297e481509_Class49 ( Int) Bool)
(declare-fun type_11ce97c2_fc03_4bd2_aad1_cb297e481509_Class48 ( Int) Bool)
(declare-fun type_11ce97c2_fc03_4bd2_aad1_cb297e481509_Class47 ( Int) Bool)
(declare-fun type_11ce97c2_fc03_4bd2_aad1_cb297e481509_Class20 ( Int) Bool)
(declare-fun type_11ce97c2_fc03_4bd2_aad1_cb297e481509_Class13 ( Int) Bool)
(declare-fun type_11ce97c2_fc03_4bd2_aad1_cb297e481509_Class12 ( Int) Bool)
(declare-fun type_11ce97c2_fc03_4bd2_aad1_cb297e481509_Class11 ( Int) Bool)
(declare-fun type_11ce97c2_fc03_4bd2_aad1_cb297e481509_Class10 ( Int) Bool)
(declare-fun type_11ce97c2_fc03_4bd2_aad1_cb297e481509_Class17 ( Int) Bool)
(declare-fun type_11ce97c2_fc03_4bd2_aad1_cb297e481509_Class16 ( Int) Bool)
(declare-fun type_11ce97c2_fc03_4bd2_aad1_cb297e481509_Class15 ( Int) Bool)
(declare-fun type_11ce97c2_fc03_4bd2_aad1_cb297e481509_Class14 ( Int) Bool)
(declare-fun type_11ce97c2_fc03_4bd2_aad1_cb297e481509_Class19 ( Int) Bool)
(declare-fun type_11ce97c2_fc03_4bd2_aad1_cb297e481509_Class18 ( Int) Bool)
(declare-fun type_11ce97c2_fc03_4bd2_aad1_cb297e481509_Class31 ( Int) Bool)
(declare-fun type_11ce97c2_fc03_4bd2_aad1_cb297e481509_Class30 ( Int) Bool)
(declare-fun type_11ce97c2_fc03_4bd2_aad1_cb297e481509_Class24 ( Int) Bool)
(declare-fun type_11ce97c2_fc03_4bd2_aad1_cb297e481509_Class23 ( Int) Bool)
(declare-fun type_11ce97c2_fc03_4bd2_aad1_cb297e481509_Class22 ( Int) Bool)
(declare-fun type_11ce97c2_fc03_4bd2_aad1_cb297e481509_Class21 ( Int) Bool)
(declare-fun type_11ce97c2_fc03_4bd2_aad1_cb297e481509_Class28 ( Int) Bool)
(declare-fun type_11ce97c2_fc03_4bd2_aad1_cb297e481509_Class27 ( Int) Bool)
(declare-fun type_11ce97c2_fc03_4bd2_aad1_cb297e481509_Class26 ( Int) Bool)
(declare-fun type_11ce97c2_fc03_4bd2_aad1_cb297e481509_Class25 ( Int) Bool)
(declare-fun type_11ce97c2_fc03_4bd2_aad1_cb297e481509_Class29 ( Int) Bool)
(declare-fun Cardinality ( Int) Int)
(declare-fun obj_c063e09f_24e0_4b65_a5f4_524da581583b ( Int) Int)
(declare-fun type_11ce97c2_fc03_4bd2_aad1_cb297e481509_Class55 ( Int) Bool)
(declare-fun type_11ce97c2_fc03_4bd2_aad1_cb297e481509_Class54 ( Int) Bool)
(declare-fun oclSelect ( Int Bool) Int)
(declare-fun Enum0 ( Int) Int)
(declare-fun Enum1 ( Int) Int)
(declare-fun Enum2 ( Int) Int)
(declare-fun container_ ( Int) Int)
(declare-fun oclIncludes ( Int Int) Bool)
(declare-fun type_11ce97c2_fc03_4bd2_aad1_cb297e481509_Class9 ( Int) Bool)
(declare-fun type_11ce97c2_fc03_4bd2_aad1_cb297e481509_Class3 ( Int) Bool)
(declare-fun type_11ce97c2_fc03_4bd2_aad1_cb297e481509_Class4 ( Int) Bool)
(declare-fun type_11ce97c2_fc03_4bd2_aad1_cb297e481509_Class1 ( Int) Bool)
(declare-fun type_11ce97c2_fc03_4bd2_aad1_cb297e481509_Class2 ( Int) Bool)
(declare-fun type_11ce97c2_fc03_4bd2_aad1_cb297e481509_Class7 ( Int) Bool)
(declare-fun type_11ce97c2_fc03_4bd2_aad1_cb297e481509_Class8 ( Int) Bool)
(declare-fun type_11ce97c2_fc03_4bd2_aad1_cb297e481509_Class5 ( Int) Bool)
(declare-fun type_11ce97c2_fc03_4bd2_aad1_cb297e481509_Class6 ( Int) Bool)
(declare-fun type_11ce97c2_fc03_4bd2_aad1_cb297e481509_Class0 ( Int) Bool)
(declare-fun ObjAt ( Int Int) Int)

;formula(s) generated
(assert (forall ((p Int)) (=> ( type_11ce97c2_fc03_4bd2_aad1_cb297e481509_Class33 p )  (and (>= ( Enum0 ( obj_c063e09f_24e0_4b65_a5f4_524da581583b p )  )  0) (<= ( Enum0 ( obj_c063e09f_24e0_4b65_a5f4_524da581583b p )  )  3)))))
(assert (! (forall ((v Int)) (=> (and (and ( type_11ce97c2_fc03_4bd2_aad1_cb297e481509_Class33 v )  ( type_11ce97c2_fc03_4bd2_aad1_cb297e481509_Class22 v ) ) ( type_11ce97c2_fc03_4bd2_aad1_cb297e481509_Class39 v ) ) (= ( Enum0 ( obj_c063e09f_24e0_4b65_a5f4_524da581583b v )  )  1))):named l0))
(assert (! (forall ((v Int)) (=> (and (and ( type_11ce97c2_fc03_4bd2_aad1_cb297e481509_Class33 v )  ( type_11ce97c2_fc03_4bd2_aad1_cb297e481509_Class22 v ) ) ( type_11ce97c2_fc03_4bd2_aad1_cb297e481509_Class39 v ) ) (not (= ( Enum0 ( obj_c063e09f_24e0_4b65_a5f4_524da581583b v )  )  1) ))):named l1))
(assert (! (exists ((o Int)) ( type_11ce97c2_fc03_4bd2_aad1_cb297e481509_Class0 ( obj_c063e09f_24e0_4b65_a5f4_524da581583b o )  ) ):named c0))
(assert (! (exists ((o Int)) (and (and (and (and (and ( type_11ce97c2_fc03_4bd2_aad1_cb297e481509_Class1 ( obj_c063e09f_24e0_4b65_a5f4_524da581583b o )  )  ( type_11ce97c2_fc03_4bd2_aad1_cb297e481509_Class45 ( obj_c063e09f_24e0_4b65_a5f4_524da581583b o )  ) ) ( type_11ce97c2_fc03_4bd2_aad1_cb297e481509_Class12 ( obj_c063e09f_24e0_4b65_a5f4_524da581583b o )  ) ) ( type_11ce97c2_fc03_4bd2_aad1_cb297e481509_Class33 ( obj_c063e09f_24e0_4b65_a5f4_524da581583b o )  ) ) ( type_11ce97c2_fc03_4bd2_aad1_cb297e481509_Class22 ( obj_c063e09f_24e0_4b65_a5f4_524da581583b o )  ) ) ( type_11ce97c2_fc03_4bd2_aad1_cb297e481509_Class39 ( obj_c063e09f_24e0_4b65_a5f4_524da581583b o )  ) )):named c1))
(assert (! (exists ((o Int)) (and (and (and (and (and (and (and (and (and ( type_11ce97c2_fc03_4bd2_aad1_cb297e481509_Class10 ( obj_c063e09f_24e0_4b65_a5f4_524da581583b o )  )  ( type_11ce97c2_fc03_4bd2_aad1_cb297e481509_Class45 ( obj_c063e09f_24e0_4b65_a5f4_524da581583b o )  ) ) ( type_11ce97c2_fc03_4bd2_aad1_cb297e481509_Class12 ( obj_c063e09f_24e0_4b65_a5f4_524da581583b o )  ) ) ( type_11ce97c2_fc03_4bd2_aad1_cb297e481509_Class55 ( obj_c063e09f_24e0_4b65_a5f4_524da581583b o )  ) ) ( type_11ce97c2_fc03_4bd2_aad1_cb297e481509_Class33 ( obj_c063e09f_24e0_4b65_a5f4_524da581583b o )  ) ) ( type_11ce97c2_fc03_4bd2_aad1_cb297e481509_Class22 ( obj_c063e09f_24e0_4b65_a5f4_524da581583b o )  ) ) ( type_11ce97c2_fc03_4bd2_aad1_cb297e481509_Class29 ( obj_c063e09f_24e0_4b65_a5f4_524da581583b o )  ) ) ( type_11ce97c2_fc03_4bd2_aad1_cb297e481509_Class39 ( obj_c063e09f_24e0_4b65_a5f4_524da581583b o )  ) ) ( type_11ce97c2_fc03_4bd2_aad1_cb297e481509_Class50 ( obj_c063e09f_24e0_4b65_a5f4_524da581583b o )  ) ) ( type_11ce97c2_fc03_4bd2_aad1_cb297e481509_Class41 ( obj_c063e09f_24e0_4b65_a5f4_524da581583b o )  ) )):named c2))
(assert (! (exists ((o Int)) ( type_11ce97c2_fc03_4bd2_aad1_cb297e481509_Class11 ( obj_c063e09f_24e0_4b65_a5f4_524da581583b o )  ) ):named c3))
(assert (! (exists ((o Int)) (and (and (and ( type_11ce97c2_fc03_4bd2_aad1_cb297e481509_Class12 ( obj_c063e09f_24e0_4b65_a5f4_524da581583b o )  )  ( type_11ce97c2_fc03_4bd2_aad1_cb297e481509_Class33 ( obj_c063e09f_24e0_4b65_a5f4_524da581583b o )  ) ) ( type_11ce97c2_fc03_4bd2_aad1_cb297e481509_Class22 ( obj_c063e09f_24e0_4b65_a5f4_524da581583b o )  ) ) ( type_11ce97c2_fc03_4bd2_aad1_cb297e481509_Class39 ( obj_c063e09f_24e0_4b65_a5f4_524da581583b o )  ) )):named c4))
(assert (! (exists ((o Int)) (and (and (and (and (and (and (and (and (and ( type_11ce97c2_fc03_4bd2_aad1_cb297e481509_Class13 ( obj_c063e09f_24e0_4b65_a5f4_524da581583b o )  )  ( type_11ce97c2_fc03_4bd2_aad1_cb297e481509_Class45 ( obj_c063e09f_24e0_4b65_a5f4_524da581583b o )  ) ) ( type_11ce97c2_fc03_4bd2_aad1_cb297e481509_Class12 ( obj_c063e09f_24e0_4b65_a5f4_524da581583b o )  ) ) ( type_11ce97c2_fc03_4bd2_aad1_cb297e481509_Class55 ( obj_c063e09f_24e0_4b65_a5f4_524da581583b o )  ) ) ( type_11ce97c2_fc03_4bd2_aad1_cb297e481509_Class33 ( obj_c063e09f_24e0_4b65_a5f4_524da581583b o )  ) ) ( type_11ce97c2_fc03_4bd2_aad1_cb297e481509_Class22 ( obj_c063e09f_24e0_4b65_a5f4_524da581583b o )  ) ) ( type_11ce97c2_fc03_4bd2_aad1_cb297e481509_Class29 ( obj_c063e09f_24e0_4b65_a5f4_524da581583b o )  ) ) ( type_11ce97c2_fc03_4bd2_aad1_cb297e481509_Class39 ( obj_c063e09f_24e0_4b65_a5f4_524da581583b o )  ) ) ( type_11ce97c2_fc03_4bd2_aad1_cb297e481509_Class50 ( obj_c063e09f_24e0_4b65_a5f4_524da581583b o )  ) ) ( type_11ce97c2_fc03_4bd2_aad1_cb297e481509_Class41 ( obj_c063e09f_24e0_4b65_a5f4_524da581583b o )  ) )):named c5))
(assert (! (exists ((o Int)) (and (and (and (and (and (and (and (and (and ( type_11ce97c2_fc03_4bd2_aad1_cb297e481509_Class14 ( obj_c063e09f_24e0_4b65_a5f4_524da581583b o )  )  ( type_11ce97c2_fc03_4bd2_aad1_cb297e481509_Class45 ( obj_c063e09f_24e0_4b65_a5f4_524da581583b o )  ) ) ( type_11ce97c2_fc03_4bd2_aad1_cb297e481509_Class12 ( obj_c063e09f_24e0_4b65_a5f4_524da581583b o )  ) ) ( type_11ce97c2_fc03_4bd2_aad1_cb297e481509_Class55 ( obj_c063e09f_24e0_4b65_a5f4_524da581583b o )  ) ) ( type_11ce97c2_fc03_4bd2_aad1_cb297e481509_Class33 ( obj_c063e09f_24e0_4b65_a5f4_524da581583b o )  ) ) ( type_11ce97c2_fc03_4bd2_aad1_cb297e481509_Class22 ( obj_c063e09f_24e0_4b65_a5f4_524da581583b o )  ) ) ( type_11ce97c2_fc03_4bd2_aad1_cb297e481509_Class29 ( obj_c063e09f_24e0_4b65_a5f4_524da581583b o )  ) ) ( type_11ce97c2_fc03_4bd2_aad1_cb297e481509_Class39 ( obj_c063e09f_24e0_4b65_a5f4_524da581583b o )  ) ) ( type_11ce97c2_fc03_4bd2_aad1_cb297e481509_Class50 ( obj_c063e09f_24e0_4b65_a5f4_524da581583b o )  ) ) ( type_11ce97c2_fc03_4bd2_aad1_cb297e481509_Class41 ( obj_c063e09f_24e0_4b65_a5f4_524da581583b o )  ) )):named c6))
(assert (! (exists ((o Int)) ( type_11ce97c2_fc03_4bd2_aad1_cb297e481509_Class15 ( obj_c063e09f_24e0_4b65_a5f4_524da581583b o )  ) ):named c7))
(assert (! (exists ((o Int)) (and (and (and (and (and ( type_11ce97c2_fc03_4bd2_aad1_cb297e481509_Class16 ( obj_c063e09f_24e0_4b65_a5f4_524da581583b o )  )  ( type_11ce97c2_fc03_4bd2_aad1_cb297e481509_Class45 ( obj_c063e09f_24e0_4b65_a5f4_524da581583b o )  ) ) ( type_11ce97c2_fc03_4bd2_aad1_cb297e481509_Class12 ( obj_c063e09f_24e0_4b65_a5f4_524da581583b o )  ) ) ( type_11ce97c2_fc03_4bd2_aad1_cb297e481509_Class33 ( obj_c063e09f_24e0_4b65_a5f4_524da581583b o )  ) ) ( type_11ce97c2_fc03_4bd2_aad1_cb297e481509_Class22 ( obj_c063e09f_24e0_4b65_a5f4_524da581583b o )  ) ) ( type_11ce97c2_fc03_4bd2_aad1_cb297e481509_Class39 ( obj_c063e09f_24e0_4b65_a5f4_524da581583b o )  ) )):named c8))
(assert (! (exists ((o Int)) ( type_11ce97c2_fc03_4bd2_aad1_cb297e481509_Class17 ( obj_c063e09f_24e0_4b65_a5f4_524da581583b o )  ) ):named c9))
(assert (! (exists ((o Int)) (and (and (and ( type_11ce97c2_fc03_4bd2_aad1_cb297e481509_Class18 ( obj_c063e09f_24e0_4b65_a5f4_524da581583b o )  )  ( type_11ce97c2_fc03_4bd2_aad1_cb297e481509_Class25 ( obj_c063e09f_24e0_4b65_a5f4_524da581583b o )  ) ) ( type_11ce97c2_fc03_4bd2_aad1_cb297e481509_Class24 ( obj_c063e09f_24e0_4b65_a5f4_524da581583b o )  ) ) ( type_11ce97c2_fc03_4bd2_aad1_cb297e481509_Class39 ( obj_c063e09f_24e0_4b65_a5f4_524da581583b o )  ) )):named c10))
(assert (! (exists ((o Int)) (and (and (and (and (and (and (and (and (and ( type_11ce97c2_fc03_4bd2_aad1_cb297e481509_Class19 ( obj_c063e09f_24e0_4b65_a5f4_524da581583b o )  )  ( type_11ce97c2_fc03_4bd2_aad1_cb297e481509_Class45 ( obj_c063e09f_24e0_4b65_a5f4_524da581583b o )  ) ) ( type_11ce97c2_fc03_4bd2_aad1_cb297e481509_Class12 ( obj_c063e09f_24e0_4b65_a5f4_524da581583b o )  ) ) ( type_11ce97c2_fc03_4bd2_aad1_cb297e481509_Class55 ( obj_c063e09f_24e0_4b65_a5f4_524da581583b o )  ) ) ( type_11ce97c2_fc03_4bd2_aad1_cb297e481509_Class33 ( obj_c063e09f_24e0_4b65_a5f4_524da581583b o )  ) ) ( type_11ce97c2_fc03_4bd2_aad1_cb297e481509_Class22 ( obj_c063e09f_24e0_4b65_a5f4_524da581583b o )  ) ) ( type_11ce97c2_fc03_4bd2_aad1_cb297e481509_Class29 ( obj_c063e09f_24e0_4b65_a5f4_524da581583b o )  ) ) ( type_11ce97c2_fc03_4bd2_aad1_cb297e481509_Class39 ( obj_c063e09f_24e0_4b65_a5f4_524da581583b o )  ) ) ( type_11ce97c2_fc03_4bd2_aad1_cb297e481509_Class50 ( obj_c063e09f_24e0_4b65_a5f4_524da581583b o )  ) ) ( type_11ce97c2_fc03_4bd2_aad1_cb297e481509_Class41 ( obj_c063e09f_24e0_4b65_a5f4_524da581583b o )  ) )):named c11))
(assert (! (exists ((o Int)) ( type_11ce97c2_fc03_4bd2_aad1_cb297e481509_Class2 ( obj_c063e09f_24e0_4b65_a5f4_524da581583b o )  ) ):named c12))
(assert (! (exists ((o Int)) ( type_11ce97c2_fc03_4bd2_aad1_cb297e481509_Class20 ( obj_c063e09f_24e0_4b65_a5f4_524da581583b o )  ) ):named c13))
(assert (! (exists ((o Int)) (and (and (and (and (and (and (and (and (and ( type_11ce97c2_fc03_4bd2_aad1_cb297e481509_Class21 ( obj_c063e09f_24e0_4b65_a5f4_524da581583b o )  )  ( type_11ce97c2_fc03_4bd2_aad1_cb297e481509_Class45 ( obj_c063e09f_24e0_4b65_a5f4_524da581583b o )  ) ) ( type_11ce97c2_fc03_4bd2_aad1_cb297e481509_Class12 ( obj_c063e09f_24e0_4b65_a5f4_524da581583b o )  ) ) ( type_11ce97c2_fc03_4bd2_aad1_cb297e481509_Class33 ( obj_c063e09f_24e0_4b65_a5f4_524da581583b o )  ) ) ( type_11ce97c2_fc03_4bd2_aad1_cb297e481509_Class22 ( obj_c063e09f_24e0_4b65_a5f4_524da581583b o )  ) ) ( type_11ce97c2_fc03_4bd2_aad1_cb297e481509_Class16 ( obj_c063e09f_24e0_4b65_a5f4_524da581583b o )  ) ) ( type_11ce97c2_fc03_4bd2_aad1_cb297e481509_Class29 ( obj_c063e09f_24e0_4b65_a5f4_524da581583b o )  ) ) ( type_11ce97c2_fc03_4bd2_aad1_cb297e481509_Class39 ( obj_c063e09f_24e0_4b65_a5f4_524da581583b o )  ) ) ( type_11ce97c2_fc03_4bd2_aad1_cb297e481509_Class41 ( obj_c063e09f_24e0_4b65_a5f4_524da581583b o )  ) ) ( type_11ce97c2_fc03_4bd2_aad1_cb297e481509_Class51 ( obj_c063e09f_24e0_4b65_a5f4_524da581583b o )  ) )):named c14))
(assert (! (exists ((o Int)) (and ( type_11ce97c2_fc03_4bd2_aad1_cb297e481509_Class22 ( obj_c063e09f_24e0_4b65_a5f4_524da581583b o )  )  ( type_11ce97c2_fc03_4bd2_aad1_cb297e481509_Class39 ( obj_c063e09f_24e0_4b65_a5f4_524da581583b o )  ) )):named c15))
(assert (! (exists ((o Int)) (and (and (and (and ( type_11ce97c2_fc03_4bd2_aad1_cb297e481509_Class23 ( obj_c063e09f_24e0_4b65_a5f4_524da581583b o )  )  ( type_11ce97c2_fc03_4bd2_aad1_cb297e481509_Class25 ( obj_c063e09f_24e0_4b65_a5f4_524da581583b o )  ) ) ( type_11ce97c2_fc03_4bd2_aad1_cb297e481509_Class24 ( obj_c063e09f_24e0_4b65_a5f4_524da581583b o )  ) ) ( type_11ce97c2_fc03_4bd2_aad1_cb297e481509_Class39 ( obj_c063e09f_24e0_4b65_a5f4_524da581583b o )  ) ) ( type_11ce97c2_fc03_4bd2_aad1_cb297e481509_Class5 ( obj_c063e09f_24e0_4b65_a5f4_524da581583b o )  ) )):named c16))
(assert (! (exists ((o Int)) (and (and ( type_11ce97c2_fc03_4bd2_aad1_cb297e481509_Class24 ( obj_c063e09f_24e0_4b65_a5f4_524da581583b o )  )  ( type_11ce97c2_fc03_4bd2_aad1_cb297e481509_Class25 ( obj_c063e09f_24e0_4b65_a5f4_524da581583b o )  ) ) ( type_11ce97c2_fc03_4bd2_aad1_cb297e481509_Class39 ( obj_c063e09f_24e0_4b65_a5f4_524da581583b o )  ) )):named c17))
(assert (! (exists ((o Int)) (and ( type_11ce97c2_fc03_4bd2_aad1_cb297e481509_Class25 ( obj_c063e09f_24e0_4b65_a5f4_524da581583b o )  )  ( type_11ce97c2_fc03_4bd2_aad1_cb297e481509_Class39 ( obj_c063e09f_24e0_4b65_a5f4_524da581583b o )  ) )):named c18))
(assert (! (exists ((o Int)) ( type_11ce97c2_fc03_4bd2_aad1_cb297e481509_Class26 ( obj_c063e09f_24e0_4b65_a5f4_524da581583b o )  ) ):named c19))
(assert (! (exists ((o Int)) ( type_11ce97c2_fc03_4bd2_aad1_cb297e481509_Class27 ( obj_c063e09f_24e0_4b65_a5f4_524da581583b o )  ) ):named c20))
(assert (! (exists ((o Int)) (and (and (and (and (and (and (and ( type_11ce97c2_fc03_4bd2_aad1_cb297e481509_Class28 ( obj_c063e09f_24e0_4b65_a5f4_524da581583b o )  )  ( type_11ce97c2_fc03_4bd2_aad1_cb297e481509_Class45 ( obj_c063e09f_24e0_4b65_a5f4_524da581583b o )  ) ) ( type_11ce97c2_fc03_4bd2_aad1_cb297e481509_Class12 ( obj_c063e09f_24e0_4b65_a5f4_524da581583b o )  ) ) ( type_11ce97c2_fc03_4bd2_aad1_cb297e481509_Class33 ( obj_c063e09f_24e0_4b65_a5f4_524da581583b o )  ) ) ( type_11ce97c2_fc03_4bd2_aad1_cb297e481509_Class22 ( obj_c063e09f_24e0_4b65_a5f4_524da581583b o )  ) ) ( type_11ce97c2_fc03_4bd2_aad1_cb297e481509_Class29 ( obj_c063e09f_24e0_4b65_a5f4_524da581583b o )  ) ) ( type_11ce97c2_fc03_4bd2_aad1_cb297e481509_Class39 ( obj_c063e09f_24e0_4b65_a5f4_524da581583b o )  ) ) ( type_11ce97c2_fc03_4bd2_aad1_cb297e481509_Class41 ( obj_c063e09f_24e0_4b65_a5f4_524da581583b o )  ) )):named c21))
(assert (! (exists ((o Int)) (and (and (and (and (and (and ( type_11ce97c2_fc03_4bd2_aad1_cb297e481509_Class29 ( obj_c063e09f_24e0_4b65_a5f4_524da581583b o )  )  ( type_11ce97c2_fc03_4bd2_aad1_cb297e481509_Class45 ( obj_c063e09f_24e0_4b65_a5f4_524da581583b o )  ) ) ( type_11ce97c2_fc03_4bd2_aad1_cb297e481509_Class12 ( obj_c063e09f_24e0_4b65_a5f4_524da581583b o )  ) ) ( type_11ce97c2_fc03_4bd2_aad1_cb297e481509_Class33 ( obj_c063e09f_24e0_4b65_a5f4_524da581583b o )  ) ) ( type_11ce97c2_fc03_4bd2_aad1_cb297e481509_Class22 ( obj_c063e09f_24e0_4b65_a5f4_524da581583b o )  ) ) ( type_11ce97c2_fc03_4bd2_aad1_cb297e481509_Class39 ( obj_c063e09f_24e0_4b65_a5f4_524da581583b o )  ) ) ( type_11ce97c2_fc03_4bd2_aad1_cb297e481509_Class41 ( obj_c063e09f_24e0_4b65_a5f4_524da581583b o )  ) )):named c22))
(assert (! (exists ((o Int)) (and (and (and ( type_11ce97c2_fc03_4bd2_aad1_cb297e481509_Class3 ( obj_c063e09f_24e0_4b65_a5f4_524da581583b o )  )  ( type_11ce97c2_fc03_4bd2_aad1_cb297e481509_Class25 ( obj_c063e09f_24e0_4b65_a5f4_524da581583b o )  ) ) ( type_11ce97c2_fc03_4bd2_aad1_cb297e481509_Class24 ( obj_c063e09f_24e0_4b65_a5f4_524da581583b o )  ) ) ( type_11ce97c2_fc03_4bd2_aad1_cb297e481509_Class39 ( obj_c063e09f_24e0_4b65_a5f4_524da581583b o )  ) )):named c23))
(assert (! (exists ((o Int)) (and ( type_11ce97c2_fc03_4bd2_aad1_cb297e481509_Class30 ( obj_c063e09f_24e0_4b65_a5f4_524da581583b o )  )  ( type_11ce97c2_fc03_4bd2_aad1_cb297e481509_Class39 ( obj_c063e09f_24e0_4b65_a5f4_524da581583b o )  ) )):named c24))
(assert (! (exists ((o Int)) (and (and (and (and (and ( type_11ce97c2_fc03_4bd2_aad1_cb297e481509_Class31 ( obj_c063e09f_24e0_4b65_a5f4_524da581583b o )  )  ( type_11ce97c2_fc03_4bd2_aad1_cb297e481509_Class45 ( obj_c063e09f_24e0_4b65_a5f4_524da581583b o )  ) ) ( type_11ce97c2_fc03_4bd2_aad1_cb297e481509_Class12 ( obj_c063e09f_24e0_4b65_a5f4_524da581583b o )  ) ) ( type_11ce97c2_fc03_4bd2_aad1_cb297e481509_Class33 ( obj_c063e09f_24e0_4b65_a5f4_524da581583b o )  ) ) ( type_11ce97c2_fc03_4bd2_aad1_cb297e481509_Class22 ( obj_c063e09f_24e0_4b65_a5f4_524da581583b o )  ) ) ( type_11ce97c2_fc03_4bd2_aad1_cb297e481509_Class39 ( obj_c063e09f_24e0_4b65_a5f4_524da581583b o )  ) )):named c25))
(assert (! (exists ((o Int)) ( type_11ce97c2_fc03_4bd2_aad1_cb297e481509_Class32 ( obj_c063e09f_24e0_4b65_a5f4_524da581583b o )  ) ):named c26))
(assert (! (exists ((o Int)) (and (and ( type_11ce97c2_fc03_4bd2_aad1_cb297e481509_Class33 ( obj_c063e09f_24e0_4b65_a5f4_524da581583b o )  )  ( type_11ce97c2_fc03_4bd2_aad1_cb297e481509_Class22 ( obj_c063e09f_24e0_4b65_a5f4_524da581583b o )  ) ) ( type_11ce97c2_fc03_4bd2_aad1_cb297e481509_Class39 ( obj_c063e09f_24e0_4b65_a5f4_524da581583b o )  ) )):named c27))
(assert (! (exists ((o Int)) (and (and (and ( type_11ce97c2_fc03_4bd2_aad1_cb297e481509_Class34 ( obj_c063e09f_24e0_4b65_a5f4_524da581583b o )  )  ( type_11ce97c2_fc03_4bd2_aad1_cb297e481509_Class25 ( obj_c063e09f_24e0_4b65_a5f4_524da581583b o )  ) ) ( type_11ce97c2_fc03_4bd2_aad1_cb297e481509_Class24 ( obj_c063e09f_24e0_4b65_a5f4_524da581583b o )  ) ) ( type_11ce97c2_fc03_4bd2_aad1_cb297e481509_Class39 ( obj_c063e09f_24e0_4b65_a5f4_524da581583b o )  ) )):named c28))
(assert (! (exists ((o Int)) (and (and ( type_11ce97c2_fc03_4bd2_aad1_cb297e481509_Class35 ( obj_c063e09f_24e0_4b65_a5f4_524da581583b o )  )  ( type_11ce97c2_fc03_4bd2_aad1_cb297e481509_Class39 ( obj_c063e09f_24e0_4b65_a5f4_524da581583b o )  ) ) ( type_11ce97c2_fc03_4bd2_aad1_cb297e481509_Class30 ( obj_c063e09f_24e0_4b65_a5f4_524da581583b o )  ) )):named c29))
(assert (! (exists ((o Int)) ( type_11ce97c2_fc03_4bd2_aad1_cb297e481509_Class36 ( obj_c063e09f_24e0_4b65_a5f4_524da581583b o )  ) ):named c30))
(assert (! (exists ((o Int)) ( type_11ce97c2_fc03_4bd2_aad1_cb297e481509_Class37 ( obj_c063e09f_24e0_4b65_a5f4_524da581583b o )  ) ):named c31))
(assert (! (exists ((o Int)) ( type_11ce97c2_fc03_4bd2_aad1_cb297e481509_Class38 ( obj_c063e09f_24e0_4b65_a5f4_524da581583b o )  ) ):named c32))
(assert (! (exists ((o Int)) ( type_11ce97c2_fc03_4bd2_aad1_cb297e481509_Class39 ( obj_c063e09f_24e0_4b65_a5f4_524da581583b o )  ) ):named c33))
(assert (! (exists ((o Int)) ( type_11ce97c2_fc03_4bd2_aad1_cb297e481509_Class4 ( obj_c063e09f_24e0_4b65_a5f4_524da581583b o )  ) ):named c34))
(assert (! (exists ((o Int)) (and (and (and (and (and (and (and (and (and ( type_11ce97c2_fc03_4bd2_aad1_cb297e481509_Class40 ( obj_c063e09f_24e0_4b65_a5f4_524da581583b o )  )  ( type_11ce97c2_fc03_4bd2_aad1_cb297e481509_Class45 ( obj_c063e09f_24e0_4b65_a5f4_524da581583b o )  ) ) ( type_11ce97c2_fc03_4bd2_aad1_cb297e481509_Class12 ( obj_c063e09f_24e0_4b65_a5f4_524da581583b o )  ) ) ( type_11ce97c2_fc03_4bd2_aad1_cb297e481509_Class55 ( obj_c063e09f_24e0_4b65_a5f4_524da581583b o )  ) ) ( type_11ce97c2_fc03_4bd2_aad1_cb297e481509_Class33 ( obj_c063e09f_24e0_4b65_a5f4_524da581583b o )  ) ) ( type_11ce97c2_fc03_4bd2_aad1_cb297e481509_Class22 ( obj_c063e09f_24e0_4b65_a5f4_524da581583b o )  ) ) ( type_11ce97c2_fc03_4bd2_aad1_cb297e481509_Class29 ( obj_c063e09f_24e0_4b65_a5f4_524da581583b o )  ) ) ( type_11ce97c2_fc03_4bd2_aad1_cb297e481509_Class39 ( obj_c063e09f_24e0_4b65_a5f4_524da581583b o )  ) ) ( type_11ce97c2_fc03_4bd2_aad1_cb297e481509_Class50 ( obj_c063e09f_24e0_4b65_a5f4_524da581583b o )  ) ) ( type_11ce97c2_fc03_4bd2_aad1_cb297e481509_Class41 ( obj_c063e09f_24e0_4b65_a5f4_524da581583b o )  ) )):named c35))
(assert (! (exists ((o Int)) (and (and (and (and (and ( type_11ce97c2_fc03_4bd2_aad1_cb297e481509_Class41 ( obj_c063e09f_24e0_4b65_a5f4_524da581583b o )  )  ( type_11ce97c2_fc03_4bd2_aad1_cb297e481509_Class45 ( obj_c063e09f_24e0_4b65_a5f4_524da581583b o )  ) ) ( type_11ce97c2_fc03_4bd2_aad1_cb297e481509_Class12 ( obj_c063e09f_24e0_4b65_a5f4_524da581583b o )  ) ) ( type_11ce97c2_fc03_4bd2_aad1_cb297e481509_Class33 ( obj_c063e09f_24e0_4b65_a5f4_524da581583b o )  ) ) ( type_11ce97c2_fc03_4bd2_aad1_cb297e481509_Class22 ( obj_c063e09f_24e0_4b65_a5f4_524da581583b o )  ) ) ( type_11ce97c2_fc03_4bd2_aad1_cb297e481509_Class39 ( obj_c063e09f_24e0_4b65_a5f4_524da581583b o )  ) )):named c36))
(assert (! (exists ((o Int)) (and ( type_11ce97c2_fc03_4bd2_aad1_cb297e481509_Class42 ( obj_c063e09f_24e0_4b65_a5f4_524da581583b o )  )  ( type_11ce97c2_fc03_4bd2_aad1_cb297e481509_Class39 ( obj_c063e09f_24e0_4b65_a5f4_524da581583b o )  ) )):named c37))
(assert (! (exists ((o Int)) ( type_11ce97c2_fc03_4bd2_aad1_cb297e481509_Class43 ( obj_c063e09f_24e0_4b65_a5f4_524da581583b o )  ) ):named c38))
(assert (! (exists ((o Int)) (and (and (and (and (and (and (and ( type_11ce97c2_fc03_4bd2_aad1_cb297e481509_Class44 ( obj_c063e09f_24e0_4b65_a5f4_524da581583b o )  )  ( type_11ce97c2_fc03_4bd2_aad1_cb297e481509_Class45 ( obj_c063e09f_24e0_4b65_a5f4_524da581583b o )  ) ) ( type_11ce97c2_fc03_4bd2_aad1_cb297e481509_Class12 ( obj_c063e09f_24e0_4b65_a5f4_524da581583b o )  ) ) ( type_11ce97c2_fc03_4bd2_aad1_cb297e481509_Class33 ( obj_c063e09f_24e0_4b65_a5f4_524da581583b o )  ) ) ( type_11ce97c2_fc03_4bd2_aad1_cb297e481509_Class22 ( obj_c063e09f_24e0_4b65_a5f4_524da581583b o )  ) ) ( type_11ce97c2_fc03_4bd2_aad1_cb297e481509_Class29 ( obj_c063e09f_24e0_4b65_a5f4_524da581583b o )  ) ) ( type_11ce97c2_fc03_4bd2_aad1_cb297e481509_Class39 ( obj_c063e09f_24e0_4b65_a5f4_524da581583b o )  ) ) ( type_11ce97c2_fc03_4bd2_aad1_cb297e481509_Class41 ( obj_c063e09f_24e0_4b65_a5f4_524da581583b o )  ) )):named c39))
(assert (! (exists ((o Int)) (and (and (and (and ( type_11ce97c2_fc03_4bd2_aad1_cb297e481509_Class45 ( obj_c063e09f_24e0_4b65_a5f4_524da581583b o )  )  ( type_11ce97c2_fc03_4bd2_aad1_cb297e481509_Class12 ( obj_c063e09f_24e0_4b65_a5f4_524da581583b o )  ) ) ( type_11ce97c2_fc03_4bd2_aad1_cb297e481509_Class33 ( obj_c063e09f_24e0_4b65_a5f4_524da581583b o )  ) ) ( type_11ce97c2_fc03_4bd2_aad1_cb297e481509_Class22 ( obj_c063e09f_24e0_4b65_a5f4_524da581583b o )  ) ) ( type_11ce97c2_fc03_4bd2_aad1_cb297e481509_Class39 ( obj_c063e09f_24e0_4b65_a5f4_524da581583b o )  ) )):named c40))
(assert (! (exists ((o Int)) (and (and ( type_11ce97c2_fc03_4bd2_aad1_cb297e481509_Class46 ( obj_c063e09f_24e0_4b65_a5f4_524da581583b o )  )  ( type_11ce97c2_fc03_4bd2_aad1_cb297e481509_Class39 ( obj_c063e09f_24e0_4b65_a5f4_524da581583b o )  ) ) ( type_11ce97c2_fc03_4bd2_aad1_cb297e481509_Class5 ( obj_c063e09f_24e0_4b65_a5f4_524da581583b o )  ) )):named c41))
(assert (! (exists ((o Int)) ( type_11ce97c2_fc03_4bd2_aad1_cb297e481509_Class47 ( obj_c063e09f_24e0_4b65_a5f4_524da581583b o )  ) ):named c42))
(assert (! (exists ((o Int)) (and (and (and (and (and (and (and (and (and ( type_11ce97c2_fc03_4bd2_aad1_cb297e481509_Class48 ( obj_c063e09f_24e0_4b65_a5f4_524da581583b o )  )  ( type_11ce97c2_fc03_4bd2_aad1_cb297e481509_Class45 ( obj_c063e09f_24e0_4b65_a5f4_524da581583b o )  ) ) ( type_11ce97c2_fc03_4bd2_aad1_cb297e481509_Class12 ( obj_c063e09f_24e0_4b65_a5f4_524da581583b o )  ) ) ( type_11ce97c2_fc03_4bd2_aad1_cb297e481509_Class55 ( obj_c063e09f_24e0_4b65_a5f4_524da581583b o )  ) ) ( type_11ce97c2_fc03_4bd2_aad1_cb297e481509_Class33 ( obj_c063e09f_24e0_4b65_a5f4_524da581583b o )  ) ) ( type_11ce97c2_fc03_4bd2_aad1_cb297e481509_Class22 ( obj_c063e09f_24e0_4b65_a5f4_524da581583b o )  ) ) ( type_11ce97c2_fc03_4bd2_aad1_cb297e481509_Class29 ( obj_c063e09f_24e0_4b65_a5f4_524da581583b o )  ) ) ( type_11ce97c2_fc03_4bd2_aad1_cb297e481509_Class39 ( obj_c063e09f_24e0_4b65_a5f4_524da581583b o )  ) ) ( type_11ce97c2_fc03_4bd2_aad1_cb297e481509_Class50 ( obj_c063e09f_24e0_4b65_a5f4_524da581583b o )  ) ) ( type_11ce97c2_fc03_4bd2_aad1_cb297e481509_Class41 ( obj_c063e09f_24e0_4b65_a5f4_524da581583b o )  ) )):named c43))
(assert (! (exists ((o Int)) (and (and (and (and (and (and (and (and (and ( type_11ce97c2_fc03_4bd2_aad1_cb297e481509_Class49 ( obj_c063e09f_24e0_4b65_a5f4_524da581583b o )  )  ( type_11ce97c2_fc03_4bd2_aad1_cb297e481509_Class45 ( obj_c063e09f_24e0_4b65_a5f4_524da581583b o )  ) ) ( type_11ce97c2_fc03_4bd2_aad1_cb297e481509_Class12 ( obj_c063e09f_24e0_4b65_a5f4_524da581583b o )  ) ) ( type_11ce97c2_fc03_4bd2_aad1_cb297e481509_Class55 ( obj_c063e09f_24e0_4b65_a5f4_524da581583b o )  ) ) ( type_11ce97c2_fc03_4bd2_aad1_cb297e481509_Class33 ( obj_c063e09f_24e0_4b65_a5f4_524da581583b o )  ) ) ( type_11ce97c2_fc03_4bd2_aad1_cb297e481509_Class22 ( obj_c063e09f_24e0_4b65_a5f4_524da581583b o )  ) ) ( type_11ce97c2_fc03_4bd2_aad1_cb297e481509_Class29 ( obj_c063e09f_24e0_4b65_a5f4_524da581583b o )  ) ) ( type_11ce97c2_fc03_4bd2_aad1_cb297e481509_Class39 ( obj_c063e09f_24e0_4b65_a5f4_524da581583b o )  ) ) ( type_11ce97c2_fc03_4bd2_aad1_cb297e481509_Class50 ( obj_c063e09f_24e0_4b65_a5f4_524da581583b o )  ) ) ( type_11ce97c2_fc03_4bd2_aad1_cb297e481509_Class41 ( obj_c063e09f_24e0_4b65_a5f4_524da581583b o )  ) )):named c44))
(assert (! (exists ((o Int)) (and ( type_11ce97c2_fc03_4bd2_aad1_cb297e481509_Class5 ( obj_c063e09f_24e0_4b65_a5f4_524da581583b o )  )  ( type_11ce97c2_fc03_4bd2_aad1_cb297e481509_Class39 ( obj_c063e09f_24e0_4b65_a5f4_524da581583b o )  ) )):named c45))
(assert (! (exists ((o Int)) (and (and (and (and (and (and (and (and ( type_11ce97c2_fc03_4bd2_aad1_cb297e481509_Class50 ( obj_c063e09f_24e0_4b65_a5f4_524da581583b o )  )  ( type_11ce97c2_fc03_4bd2_aad1_cb297e481509_Class45 ( obj_c063e09f_24e0_4b65_a5f4_524da581583b o )  ) ) ( type_11ce97c2_fc03_4bd2_aad1_cb297e481509_Class12 ( obj_c063e09f_24e0_4b65_a5f4_524da581583b o )  ) ) ( type_11ce97c2_fc03_4bd2_aad1_cb297e481509_Class55 ( obj_c063e09f_24e0_4b65_a5f4_524da581583b o )  ) ) ( type_11ce97c2_fc03_4bd2_aad1_cb297e481509_Class33 ( obj_c063e09f_24e0_4b65_a5f4_524da581583b o )  ) ) ( type_11ce97c2_fc03_4bd2_aad1_cb297e481509_Class22 ( obj_c063e09f_24e0_4b65_a5f4_524da581583b o )  ) ) ( type_11ce97c2_fc03_4bd2_aad1_cb297e481509_Class29 ( obj_c063e09f_24e0_4b65_a5f4_524da581583b o )  ) ) ( type_11ce97c2_fc03_4bd2_aad1_cb297e481509_Class39 ( obj_c063e09f_24e0_4b65_a5f4_524da581583b o )  ) ) ( type_11ce97c2_fc03_4bd2_aad1_cb297e481509_Class41 ( obj_c063e09f_24e0_4b65_a5f4_524da581583b o )  ) )):named c46))
(assert (! (exists ((o Int)) (and (and (and (and (and (and ( type_11ce97c2_fc03_4bd2_aad1_cb297e481509_Class51 ( obj_c063e09f_24e0_4b65_a5f4_524da581583b o )  )  ( type_11ce97c2_fc03_4bd2_aad1_cb297e481509_Class45 ( obj_c063e09f_24e0_4b65_a5f4_524da581583b o )  ) ) ( type_11ce97c2_fc03_4bd2_aad1_cb297e481509_Class12 ( obj_c063e09f_24e0_4b65_a5f4_524da581583b o )  ) ) ( type_11ce97c2_fc03_4bd2_aad1_cb297e481509_Class33 ( obj_c063e09f_24e0_4b65_a5f4_524da581583b o )  ) ) ( type_11ce97c2_fc03_4bd2_aad1_cb297e481509_Class22 ( obj_c063e09f_24e0_4b65_a5f4_524da581583b o )  ) ) ( type_11ce97c2_fc03_4bd2_aad1_cb297e481509_Class16 ( obj_c063e09f_24e0_4b65_a5f4_524da581583b o )  ) ) ( type_11ce97c2_fc03_4bd2_aad1_cb297e481509_Class39 ( obj_c063e09f_24e0_4b65_a5f4_524da581583b o )  ) )):named c47))
(assert (! (exists ((o Int)) (and (and (and (and (and ( type_11ce97c2_fc03_4bd2_aad1_cb297e481509_Class52 ( obj_c063e09f_24e0_4b65_a5f4_524da581583b o )  )  ( type_11ce97c2_fc03_4bd2_aad1_cb297e481509_Class45 ( obj_c063e09f_24e0_4b65_a5f4_524da581583b o )  ) ) ( type_11ce97c2_fc03_4bd2_aad1_cb297e481509_Class12 ( obj_c063e09f_24e0_4b65_a5f4_524da581583b o )  ) ) ( type_11ce97c2_fc03_4bd2_aad1_cb297e481509_Class33 ( obj_c063e09f_24e0_4b65_a5f4_524da581583b o )  ) ) ( type_11ce97c2_fc03_4bd2_aad1_cb297e481509_Class22 ( obj_c063e09f_24e0_4b65_a5f4_524da581583b o )  ) ) ( type_11ce97c2_fc03_4bd2_aad1_cb297e481509_Class39 ( obj_c063e09f_24e0_4b65_a5f4_524da581583b o )  ) )):named c48))
(assert (! (exists ((o Int)) ( type_11ce97c2_fc03_4bd2_aad1_cb297e481509_Class53 ( obj_c063e09f_24e0_4b65_a5f4_524da581583b o )  ) ):named c49))
(assert (! (exists ((o Int)) ( type_11ce97c2_fc03_4bd2_aad1_cb297e481509_Class54 ( obj_c063e09f_24e0_4b65_a5f4_524da581583b o )  ) ):named c50))
(assert (! (exists ((o Int)) (and (and (and (and (and (and (and ( type_11ce97c2_fc03_4bd2_aad1_cb297e481509_Class55 ( obj_c063e09f_24e0_4b65_a5f4_524da581583b o )  )  ( type_11ce97c2_fc03_4bd2_aad1_cb297e481509_Class45 ( obj_c063e09f_24e0_4b65_a5f4_524da581583b o )  ) ) ( type_11ce97c2_fc03_4bd2_aad1_cb297e481509_Class12 ( obj_c063e09f_24e0_4b65_a5f4_524da581583b o )  ) ) ( type_11ce97c2_fc03_4bd2_aad1_cb297e481509_Class33 ( obj_c063e09f_24e0_4b65_a5f4_524da581583b o )  ) ) ( type_11ce97c2_fc03_4bd2_aad1_cb297e481509_Class22 ( obj_c063e09f_24e0_4b65_a5f4_524da581583b o )  ) ) ( type_11ce97c2_fc03_4bd2_aad1_cb297e481509_Class29 ( obj_c063e09f_24e0_4b65_a5f4_524da581583b o )  ) ) ( type_11ce97c2_fc03_4bd2_aad1_cb297e481509_Class39 ( obj_c063e09f_24e0_4b65_a5f4_524da581583b o )  ) ) ( type_11ce97c2_fc03_4bd2_aad1_cb297e481509_Class41 ( obj_c063e09f_24e0_4b65_a5f4_524da581583b o )  ) )):named c51))
(assert (! (exists ((o Int)) ( type_11ce97c2_fc03_4bd2_aad1_cb297e481509_Class6 ( obj_c063e09f_24e0_4b65_a5f4_524da581583b o )  ) ):named c52))
(assert (! (exists ((o Int)) (and (and (and (and (and (and (and (and (and ( type_11ce97c2_fc03_4bd2_aad1_cb297e481509_Class7 ( obj_c063e09f_24e0_4b65_a5f4_524da581583b o )  )  ( type_11ce97c2_fc03_4bd2_aad1_cb297e481509_Class45 ( obj_c063e09f_24e0_4b65_a5f4_524da581583b o )  ) ) ( type_11ce97c2_fc03_4bd2_aad1_cb297e481509_Class12 ( obj_c063e09f_24e0_4b65_a5f4_524da581583b o )  ) ) ( type_11ce97c2_fc03_4bd2_aad1_cb297e481509_Class55 ( obj_c063e09f_24e0_4b65_a5f4_524da581583b o )  ) ) ( type_11ce97c2_fc03_4bd2_aad1_cb297e481509_Class33 ( obj_c063e09f_24e0_4b65_a5f4_524da581583b o )  ) ) ( type_11ce97c2_fc03_4bd2_aad1_cb297e481509_Class22 ( obj_c063e09f_24e0_4b65_a5f4_524da581583b o )  ) ) ( type_11ce97c2_fc03_4bd2_aad1_cb297e481509_Class29 ( obj_c063e09f_24e0_4b65_a5f4_524da581583b o )  ) ) ( type_11ce97c2_fc03_4bd2_aad1_cb297e481509_Class39 ( obj_c063e09f_24e0_4b65_a5f4_524da581583b o )  ) ) ( type_11ce97c2_fc03_4bd2_aad1_cb297e481509_Class50 ( obj_c063e09f_24e0_4b65_a5f4_524da581583b o )  ) ) ( type_11ce97c2_fc03_4bd2_aad1_cb297e481509_Class41 ( obj_c063e09f_24e0_4b65_a5f4_524da581583b o )  ) )):named c53))
(assert (! (exists ((o Int)) (and ( type_11ce97c2_fc03_4bd2_aad1_cb297e481509_Class8 ( obj_c063e09f_24e0_4b65_a5f4_524da581583b o )  )  ( type_11ce97c2_fc03_4bd2_aad1_cb297e481509_Class39 ( obj_c063e09f_24e0_4b65_a5f4_524da581583b o )  ) )):named c54))
(assert (! (exists ((o Int)) ( type_11ce97c2_fc03_4bd2_aad1_cb297e481509_Class9 ( obj_c063e09f_24e0_4b65_a5f4_524da581583b o )  ) ):named c55))

 ;end of formula 